outputs/case_318.model.txt
order_to_provision_reserve_funds = False
suspension_of_partial_business = True
investment_restriction = True
order_to_close_branches_or_departments = False
other_necessary_measures = True
revocation_of_statutory_meeting_resolution = False
removal_or_suspension_of_directors_or_supervisors = False
order_to_remove_or_suspend_manager_or_staff = False
order_or_prohibition_of_asset_disposition = False
business_guidance_assigned = False
notification_to_registration_authority = False
penalty_measures = True
penalty = False
corrective_action_ordered = True
removal_of_directors_supervisors_notified = True
business_guidance_needed = True
violation_of_law_or_regulation = True